NAME : in_house_9_6
TYPE : TSP
DIMENSION : 9
EDGE_WEIGHT_TYPE : EXPLICIT
EDGE_WEIGHT_FORMAT : UPPER_ROW
COMMENT : INVERSION_SHIFT=1
EDGE_WEIGHT_SECTION
40
48
69
79
45
71
81
19
67
25
1
49
24
36
68
11
21
61
19
14
42
42
58
30
44
80
24
23
3
72
4
51
71
54
62
39
